
Log started (V11.0.0) Wed Apr 16 12:54:20 2008

Tried aggregator 1 time.
Reduced MIP has 110 rows, 1001 columns, and 2010 nonzeros.
Presolve time =    0.02 sec.
Clique table members: 100.
MIP emphasis: balance optimality and feasibility.
MIP search method: dynamic search.
Parallel mode: none, using 1 thread.
Root relaxation solution time =    0.02 sec.

        Nodes                                         Cuts/
   Node  Left     Objective  IInf  Best Integer     Best Node    ItCnt     Gap

*     0+    0                        15084.0000     1091.0655      196   92.77%
*     0+    0                         1120.0000     1091.0655      196    2.58%
      0     0     1092.0000    18     1120.0000      Fract: 6      201    2.50%
      0     0     1092.0948    28     1120.0000     Covers: 2      259    2.49%
*     0+    0                         1118.0000     1092.0948      259    2.32%
      0     0     1094.8238    35     1118.0000       Cuts: 9      292    2.07%
      0     0     1095.0000    38     1118.0000    MIRcuts: 5      310    2.06%
      0     0     1095.1230    46     1118.0000       Cuts: 7      325    2.05%
      0     0     1095.2695    53     1118.0000    MIRcuts: 4      343    2.03%
      0     0     1095.2823    54     1118.0000    MIRcuts: 2      359    2.03%
      0     0     1095.2968    57     1118.0000    MIRcuts: 2      371    2.03%
*     0+    0                         1111.0000     1095.2968      371    1.41%
*     0+    0                         1107.0000     1095.2968      371    1.06%
*     0+    0                         1103.0000     1095.2968      371    0.70%
      0     2     1096.0000    47     1103.0000     1095.2968      371    0.70%
    100    72     1097.0000    20     1103.0000     1096.0000     2636    0.63%
    200   150     1100.0066    29     1103.0000     1096.0000     4975    0.63%
    300   231     1097.0000    21     1103.0000     1096.0000     6843    0.63%
    400   303     1098.0000    18     1103.0000     1096.0000     9395    0.63%
    500   362     1098.0000    26     1103.0000     1097.0000    15436    0.54%
    600   326    infeasible           1103.0000     1097.0000    21292    0.54%
*   611+  204                         1102.0000     1097.0000    22836    0.45%
    700   208     1099.0000    12     1102.0000     1097.0000    27654    0.45%
*   701+  151                         1101.0000     1097.0000    27659    0.36%
    800   143     1099.0000    34     1101.0000     1097.0000    33114    0.36%
    900   211     1100.0000    25     1101.0000     1097.2232    42798    0.34%
   1000   263     1099.8580    62     1101.0000     1098.0000    54911    0.27%
Elapsed time =   7.88 sec. (tree size =  0.13 MB, solutions = 8)
   1100   331     1099.0000    60     1101.0000     1098.0000    69038    0.27%
   1200   383     1100.0000     8     1101.0000     1098.0000    86060    0.27%
*  1236   191      integral     0     1100.0000     1098.0000    90577    0.18%
   1300   213     1099.0000    59     1100.0000     1098.0000   105629    0.18%
   1400   214     1098.0000    63     1100.0000     1098.0000   128522    0.18%
   1500   266     1099.0000    45     1100.0000     1098.0000   145623    0.18%
   1600   338     1098.0000    43     1100.0000     1098.0000   163246    0.18%
   1700   382     1099.0000    38     1100.0000     1098.0000   183115    0.18%
   1800   445    infeasible           1100.0000     1098.0000   203623    0.18%
   1900   487     1099.0000    42     1100.0000     1098.0000   226745    0.18%
   2000   527     1099.0000    59     1100.0000     1098.0000   249450    0.18%
Elapsed time =  32.97 sec. (tree size =  0.27 MB, solutions = 9)
   2100   556    infeasible           1100.0000     1099.0000   275438    0.09%
   2200   495    infeasible           1100.0000     1099.0000   309431    0.09%
   2300   472        cutoff           1100.0000     1099.0000   338249    0.09%
   2400   468    infeasible           1100.0000     1099.0000   368445    0.09%
   2500   433    infeasible           1100.0000     1099.0000   402282    0.09%
   2600   424     1099.0000    80     1100.0000     1099.0000   432552    0.09%
   2700   419     1099.0000    76     1100.0000     1099.0000   463341    0.09%
   2800   415    infeasible           1100.0000     1099.0000   495232    0.09%
   2900   380     1099.0000    72     1100.0000     1099.0000   531568    0.09%
   3000   358    infeasible           1100.0000     1099.0000   564497    0.09%
Elapsed time =  81.41 sec. (tree size =  0.19 MB, solutions = 9)
   3100   340    infeasible           1100.0000     1099.0000   597677    0.09%
   3200   356     1099.0000    58     1100.0000     1099.0000   628175    0.09%
   3300   300    infeasible           1100.0000     1099.0000   665053    0.09%
   3400   229    infeasible           1100.0000     1099.0000   703097    0.09%
   3500   191     1099.0000    92     1100.0000     1099.0000   738301    0.09%
   3600   157    infeasible           1100.0000     1099.0000   774035    0.09%
   3700    89     1099.0000    58     1100.0000     1099.0000   814502    0.09%
   3800    63     1099.0000    74     1100.0000     1099.0000   848303    0.09%
   3900    34    infeasible           1100.0000     1099.0000   888045    0.09%
   4000    17     1099.0000    64     1100.0000     1099.0000   923964    0.09%
Elapsed time = 145.02 sec. (tree size =  0.02 MB, solutions = 9)

Cover cuts applied:  531
Mixed integer rounding cuts applied:  13
Zero-half cuts applied:  1
Gomory fractional cuts applied:  5

Solution pool: 9 solutions saved.

MIP - Integer optimal solution:  Objective = 1.1000000000e+003
Solution time =  148.44 sec.  Iterations = 943278  Nodes = 4054


Incumbent solution
Variable Name           Solution Value
Cmax                       1100.000000
X_1_2                         1.000000
X_2_4                         1.000000
X_3_3                         1.000000
X_4_3                         1.000000
X_5_8                         1.000000
X_6_3                         1.000000
X_7_2                         1.000000
X_8_6                         1.000000
X_9_6                         1.000000
X_10_2                        1.000000
X_11_2                        0.000000
X_11_5                        1.000000
X_12_2                        1.000000
X_13_7                        1.000000
X_14_7                        1.000000
X_15_1                        1.000000
X_16_4                        1.000000
X_17_6                        1.000000
X_18_1                        1.000000
X_19_8                        1.000000
X_20_4                        1.000000
X_21_6                        0.000000
X_21_9                        1.000000
X_22_5                        1.000000
X_23_7                        1.000000
X_24_5                        1.000000
X_25_9                        1.000000
X_26_10                       1.000000
X_27_5                        1.000000
X_28_5                        1.000000
X_29_10                       1.000000
X_30_9                        1.000000
X_31_3                        1.000000
X_32_7                        1.000000
X_33_8                        1.000000
X_34_3                        1.000000
X_34_9                        0.000000
X_35_10                       1.000000
X_36_9                        1.000000
X_37_9                        1.000000
X_38_8                        1.000000
X_39_8                        1.000000
X_40_4                        1.000000
X_41_9                        1.000000
X_42_5                        1.000000
X_43_7                        1.000000
X_44_8                        1.000000
X_45_2                        1.000000
X_46_5                        1.000000
X_47_8                        1.000000
X_48_4                        1.000000
X_49_2                        1.000000
X_50_1                        1.000000
X_51_7                        1.000000
X_52_6                        1.000000
X_53_7                        1.000000
X_54_4                        1.000000
X_55_10                       1.000000
X_56_5                        1.000000
X_57_10                       1.000000
X_58_5                        1.000000
X_59_1                        1.000000
X_60_2                        1.000000
X_61_6                        1.000000
X_62_6                        1.000000
X_63_10                       1.000000
X_64_1                        1.000000
X_65_3                        1.000000
X_66_1                        1.000000
X_67_6                        1.000000
X_68_9                        1.000000
X_69_4                        1.000000
X_70_6                        1.000000
X_71_8                        1.000000
X_72_1                        1.000000
X_73_8                        1.000000
X_74_9                        1.000000
X_75_1                        1.000000
X_76_3                        1.000000
X_77_2                        1.000000
X_78_8                        1.000000
X_79_1                        1.000000
X_80_4                        1.000000
X_81_9                        1.000000
X_82_9                        1.000000
X_83_1                        0.000000
X_83_2                        1.000000
X_84_10                       1.000000
X_85_10                       1.000000
X_86_2                        1.000000
X_87_4                        1.000000
X_88_3                        1.000000
X_89_10                       1.000000
X_90_1                        1.000000
X_90_3                        0.000000
X_91_5                        1.000000
X_92_10                       1.000000
X_93_3                        1.000000
X_94_7                        1.000000
X_95_4                        1.000000
X_96_7                        1.000000
X_97_6                        1.000000
X_98_3                        1.000000
X_99_7                        1.000000
X_100_6                       1.000000
All other variables in the range 1-1001 are 0.
